2670.40
0 16 21 100 6 8 9 5 2 1 10 7 3 4 0 
0 14 22 75 74 24 0 
0 93 89 94 95 98 96 91 17 0 
0 42 34 38 54 32 41 46 50 0 
0 49 47 48 36 31 39 33 40 30 28 67 58 29 44 60 0 
0 70 72 71 69 37 25 0 
0 52 62 56 45 35 63 59 53 68 66 64 83 86 84 82 85 0 
0 19 20 88 73 92 90 18 0 
0 51 77 78 76 79 80 57 55 65 13 27 81 0 
0 99 97 61 43 87 0 
0 12 11 23 26 15 0 
